   13
FINAL HEAT OF FORMATION =     0.000000
 C    -1.200600    -0.214300    -0.017300
 C    -1.068600     1.223500     0.000100
 C     0.180900     1.765500     0.022900
 N     1.045499     1.486568     1.073603
 C     1.124424     0.152194     1.625924
 N     0.300086    -0.857033     1.067753
 O     1.897284    -0.028386     2.551043
 N    -2.461800    -0.815300    -0.163700
 H    -2.506100    -1.784100     0.057900
 H    -3.200500    -0.284900     0.236800
 H     0.347300     2.850700     0.032400
 H    -1.756201     1.430918    -0.825907
 H     1.955171     1.889590     1.075758
